PARAMETER_FILE = even/even_complete_graph_new/par/random29.par
PROBLEM_FILE = even/even_complete_graph_new/mat/random29.tsp
Successes/Runs = 0/10
Cost.min = 437, Cost.avg = 437.00, Cost.max = 437
Gap.min = 0.0000%, Gap.avg = 0.0000%, Gap.max = 0.0000%
Trials.min = 1000, Trials.avg = 1000.0, Trials.max = 1000
Time.min = 0.01 sec., Time.avg = 0.01 sec., Time.max = 0.01 sec.
Time.total = 0.08 sec.
